456469019647171584 -1 0
478253326501342003 2 0
330226731108967294 -1 0
48399978848704232 -3 0
246126274962932865 4 0
393499252697786948 -5 0
577091075756013873 4 0
391805689174740617 5 0
86086535545669973 -2 0
263515177592187465 -5 0
417487705136009419 -5 0
538302625035184217 -4 0
291159451333575642 -6 0
328071489374914208 -3 0
285373794747892602 -7 0
565173884844904945 2 0
557760077351210703 -7 0
424099774118616140 8 0
411525853037773725 5 0
509417020696767968 -4 0
320099762538970847 -1 0
185128315372920118 -9 0
325907802276583172 -2 0
285072041327177601 9 0
508112103187024113 -3 0
